DATASET = "thpack3";
INSTANCE = "011";

WIDTH = 233;
HEIGHT = 220;
LENGTH = 587;

NO_OF_SHAPES = 8;
size = [|
  74,63,61 |
  71,60,25 |
  106,80,59 |
  109,76,42 |
  118,56,22 |
  105,67,43 |
  72,65,37 |
  84,59,54 |
|];

verticality = [|
  1,1,1 |
  0,0,1 |
  1,1,1 |
  0,1,1 |
  0,0,1 |
  0,1,1 |
  1,1,1 |
  1,1,1 |
|];

box_count = [
  17,
  13,
  10,
  15,
  19,
  16,
  20,
  9,
];
